p tdp 16 42
1 2
1 6
1 11
1 13
1 16
2 4
2 6
2 11
2 13
3 9
3 12
3 14
4 7
4 10
4 12
4 13
5 6
5 7
5 10
5 11
5 12
6 16
7 10
7 12
7 13
7 14
7 15
8 9
8 11
8 14
8 15
8 16
9 12
9 13
9 14
9 15
10 15
11 16
12 15
12 16
13 15
14 15
